NAME : Giant_Problem.txt
COMMENT : 
TYPE : TSP
DIMENSION : 32
EDGE_WEIGHT_TYPE : EUC_2D
NODE_COORD_SECTION
1	298	427	
2	309	445
3	307	464
4	336	475
5	320	439
6	321	437
7	322	437
8	323	433
9	324	433
10	323	429
11	314	435
12	311	442
13	304	427
14	293	421
15	296	418
16	261	384
17	297	410
18	315	407
19	314	406
20	321	391
21	321	398
22	314	394
23	313	378
24	304	382
25	295	402
26	283	406
27	279	399
28	271	401
29	264	414
30	277	439
31	290	434
32	319	433
EOF
